\* Power-Cost consumption problem *\
Minimize
Total_Cost_of_Energy: 100 time_0 + 104 time_1 + 360 time_10 + 345 time_11
 + 210 time_12 + 200 time_13 + 200 time_14 + 210 time_15 + 210 time_16
 + 210 time_17 + 220 time_18 + 220 time_19 + 104 time_2 + 345 time_20
 + 345 time_21 + 360 time_22 + 96 time_23 + 104 time_3 + 108 time_4
 + 104 time_5 + 104 time_6 + 250 time_7 + 375 time_8 + 375 time_9
Subject To
Max_Power: 250 time_0 + 260 time_1 + 240 time_10 + 230 time_11 + 210 time_12
 + 200 time_13 + 200 time_14 + 210 time_15 + 210 time_16 + 210 time_17
 + 220 time_18 + 220 time_19 + 260 time_2 + 230 time_20 + 230 time_21
 + 240 time_22 + 240 time_23 + 260 time_3 + 270 time_4 + 260 time_5
 + 260 time_6 + 250 time_7 + 250 time_8 + 250 time_9 <= 3500
Min_Power: 250 time_0 + 260 time_1 + 240 time_10 + 230 time_11 + 210 time_12
 + 200 time_13 + 200 time_14 + 210 time_15 + 210 time_16 + 210 time_17
 + 220 time_18 + 220 time_19 + 260 time_2 + 230 time_20 + 230 time_21
 + 240 time_22 + 240 time_23 + 260 time_3 + 270 time_4 + 260 time_5
 + 260 time_6 + 250 time_7 + 250 time_8 + 250 time_9 >= 3250
Binaries
time_0
time_1
time_10
time_11
time_12
time_13
time_14
time_15
time_16
time_17
time_18
time_19
time_2
time_20
time_21
time_22
time_23
time_3
time_4
time_5
time_6
time_7
time_8
time_9
End
